   (declare-fun e () (_ BitVec 8))   (declare-fun g () (_ BitVec 8))    (declare-fun l () (_ BitVec 8))            (declare-fun a () (_ BitVec 160)) (declare-fun h () (_ BitVec 32))   (define-fun i () (_ BitVec 32) h)  (define-fun k () (_ BitVec 8) ((_ extract 159 152) a))     (define-fun p () Bool false)    (define-fun aa () Bool false)     (define-fun af () (_ BitVec 8) ((_ extract 103 96) a))  (define-fun ah () (_ BitVec 8) ((_ extract 95 88) a)) (define-fun ai () Bool true)    (define-fun am () Bool true)         (define-fun w () (_ BitVec 8) ((_ extract 39 32) a))  (define-fun y () (_ BitVec 8) ((_ extract 31 24) a))      (define-fun __memory_29_select_0_bv_comp_20 () Bool true) (define-fun __memory_29_select_0_bv_comp_21 () Bool true) (define-fun __memory_29_select_0_bv_comp_22 () Bool true)      (define-fun __memory_29_select_0_bv_comp_28 () Bool true) (define-fun __memory_29_select_0_bv_comp_29 () Bool true)  (define-fun __memory_29_select_0_bv_comp_31 () Bool true) (define-fun __memory_29_select_0_bv_comp_32 () Bool true) (define-fun __memory_29_select_0_bv_comp_33 () Bool true) (define-fun __memory_29_select_0_bv_comp_34 () Bool true) (define-fun __memory_29_select_0_bv_comp_35 () Bool true)   (define-fun __memory_29_select_0_bv_comp_38 () Bool true) (define-fun __memory_29_select_0_bv_comp_39 () Bool true)  (define-fun __memory_29_select_0_bv_comp_41 () Bool true)                     (define-fun __memory_29_select_0_bv_comp_62 () Bool true)           (define-fun __memory_29_select_0_bv_comp_73 () Bool true)    (define-fun __memory_29_select_0_bv_comp_77 () Bool true)    (define-fun __memory_29_select_0_bv_comp_81 () Bool true)               (define-fun __memory_29_select_0_bv_comp_96 () Bool true) (define-fun __memory_29_select_0_bv_comp_97 () Bool true)              (define-fun __memory_29_select_0_bv_comp_111 () Bool true)       (define-fun __memory_29_select_0_bv_comp_118 () Bool true) (define-fun __memory_29_select_0_bv_comp_119 () Bool true) (define-fun __memory_29_select_0_bv_comp_120 () Bool true)   (define-fun __memory_29_select_0_bv_comp_123 () Bool true) (define-fun __memory_29_select_0_bv_comp_124 () Bool true)   (define-fun __memory_29_select_0_bv_comp_127 () Bool true) (define-fun __memory_29_select_0_bv_comp_128 () Bool true) (define-fun __memory_29_select_0_bv_comp_129 () Bool true) (define-fun __memory_29_select_0_bv_comp_130 () Bool true)      (define-fun __memory_29_select_0_bv_comp_136 () Bool true) (define-fun __memory_29_select_0_bv_comp_137 () Bool true)     (define-fun __memory_29_select_0_bv_comp_142 () Bool true)       (define-fun __memory_29_select_0_bv_comp_149 () Bool true)             (define-fun __memory_29_select_0_bv_comp_162 () Bool true) (define-fun __memory_29_select_0_bv_comp_163 () Bool true)     (define-fun __memory_29_select_0_bv_comp_168 () Bool true)     (define-fun __memory_29_select_0_bv_comp_173 () Bool true)     (define-fun __memory_29_select_0_bv_comp_178 () Bool true) (define-fun __memory_29_select_0_bv_comp_179 () Bool true)          (define-fun __memory_29_select_0_bv_comp_189 () Bool true)    (define-fun __memory_29_select_0_bv_comp_193 () Bool true)                (define-fun __memory_29_select_0_bv_comp_209 () Bool true)       (define-fun __memory_29_select_0_bv_comp_216 () Bool true)  (define-fun __memory_29_select_0_bv_comp_218 () Bool true) (define-fun __memory_29_select_0_bv_comp_219 () Bool true)    (define-fun __memory_29_select_0_bv_comp_223 () Bool true)           (define-fun __memory_29_select_0_bv_comp_234 () Bool true) (define-fun __memory_29_select_0_bv_comp_235 () Bool true)  (define-fun __memory_29_select_0_bv_comp_237 () Bool true)               (define-fun __memory_29_select_0_bv_comp_252 () Bool true)      (define-fun __memory_29_select_0_bv_comp_258 () Bool true)     (define-fun __memory_29_select_0_bv_comp_263 () Bool true)               (define-fun __memory_29_select_0_bv_comp_278 () Bool true) (define-fun __memory_29_select_0_bv_comp_279 () Bool true) (define-fun __memory_29_select_0_bv_comp_280 () Bool true) (define-fun __memory_29_select_0_bv_comp_281 () Bool true)                (define-fun __memory_29_select_0_bv_comp_297 () Bool true)   (define-fun __memory_29_select_0_bv_comp_300 () Bool true)  (define-fun __memory_29_select_0_bv_comp_302 () Bool true) (define-fun __memory_29_select_0_bv_comp_303 () Bool true)           (define-fun __memory_29_select_0_bv_comp_314 () Bool true)    (define-fun __memory_29_select_0_bv_comp_318 () Bool true)    (define-fun __memory_29_select_0_bv_comp_322 () Bool true)      (define-fun __memory_29_select_0_bv_comp_328 () Bool true) (define-fun __memory_29_select_0_bv_comp_329 () Bool true)    (define-fun __memory_29_select_0_bv_comp_333 () Bool true) (define-fun __memory_29_select_0_bv_comp_334 () Bool true)   (define-fun __memory_29_select_0_bv_comp_337 () Bool true)   (define-fun __memory_29_select_0_bv_comp_340 () Bool true)                    (define-fun __memory_29_select_0_bv_comp_360 () Bool true) (define-fun __memory_29_select_0_bv_comp_361 () Bool true)            (define-fun __memory_29_select_0_bv_comp_373 () Bool false)   (define-fun __memory_29_select_0_bv_comp_376 () Bool true) (define-fun __memory_29_select_0_bv_comp_377 () Bool false)      (define-fun __memory_29_select_0_bv_comp_383 () Bool true) (define-fun __memory_29_select_0_bv_comp_384 () Bool true) (define-fun __memory_29_select_0_bv_comp_385 () Bool true)  (define-fun __memory_29_select_0_bv_comp_387 () Bool true) (define-fun __memory_29_select_0_bv_comp_388 () Bool false) (define-fun __memory_29_select_0_bv_comp_389 () Bool true) (define-fun __memory_29_select_0_bv_comp_390 () Bool true)    (define-fun __memory_29_select_0_bv_comp_394 () Bool true)   (define-fun __memory_29_select_0_bv_comp_397 () Bool true)        (define-fun __memory_29_select_0_bv_comp_406 () Bool false)           (define-fun __memory_29_select_0_bv_comp_417 () Bool true) (define-fun __memory_29_select_0_bv_ite_418 () (_ BitVec 8) k)          (declare-fun edi_34 () (_ BitVec 32)) (declare-fun DF_54 () (_ BitVec 1)) (define-fun edi_55_bv_comp_0 () Bool DF_54) (define-fun edi_55 () (_ BitVec 32) i) (define-fun edi_60 () (_ BitVec 32) edi_55) (define-fun edi_65 () (_ BitVec 32) (bvsub edi_60 (_ bv4 32))) (define-fun edi_70 () (_ BitVec 32) (bvsub edi_65 (_ bv4 32))) (define-fun edi_75 () (_ BitVec 32) (ite edi_55_bv_comp_0 (bvsub edi_70 (_ bv4 32)) edi_70)) (define-fun edi_80 () (_ BitVec 32) (ite edi_55_bv_comp_0 (bvsub edi_75 (_ bv4 32)) (bvadd edi_75 (_ bv4 32)))) (define-fun edi_85 () (_ BitVec 32) (bvsub edi_80 (_ bv4 32))) (define-fun edi_90 () (_ BitVec 32) (ite edi_55_bv_comp_0 (bvsub edi_85 (_ bv4 32)) (_ bv4 32))) (define-fun edi_95 () (_ BitVec 32) (bvsub edi_90 (_ bv4 32))) (define-fun edi_100 () (_ BitVec 32) edi_95) (define-fun __memory_119_bv_ite_0 () (_ BitVec 32) edi_100) (declare-fun esi_121 () (_ BitVec 32)) (declare-fun ebx_124 () (_ BitVec 32))     (define-fun assert_select_0_bv_unop_4 () (_ BitVec 8) ((_ extract 31 24) esi_121))        (define-fun assert_select_0_bv_unop_12 () (_ BitVec 8) ((_ extract 31 24) i))   (define-fun assert_select_0_bv_unop_15 () (_ BitVec 8) ((_ extract 7 0) i))                         (define-fun edi_225_bv_comp_27 () Bool false) (define-fun edi_225_bv_comp_47 () Bool false)     (define-fun edi_225_bv_comp_87 () Bool (= i (_ bv134529088 32)))    (define-fun edi_257_bv_comp_7 () Bool true) (define-fun edi_257 () (_ BitVec 32) ((_ sign_extend 24) (_ bv1 8)))               (define-fun edi_557_bv_ite_155 () (_ BitVec 8) (_ bv8 8))   (define-fun edi_589 () (_ BitVec 32) ((_ sign_extend 24) (_ bv0 8)))      (define-fun edi_646_bv_comp_7 () Bool true)    (define-fun edi_646 () (_ BitVec 32) ((_ sign_extend 24) (_ bv13 8))) (define-fun assert_bv_bnop_122 () (_ BitVec 32) (_ bv48 32)) (define-fun assert_bv_unop_5 () (_ BitVec 8) ((_ extract 31 24) assert_bv_bnop_122))           (define-fun assert_bv_bnop_131 () (_ BitVec 32) (_ bv4 32))          (define-fun eax_1003_bv_comp_0 () Bool false)  (define-fun eax_1003_bv_comp_3 () Bool false)                                (define-fun edi_17482_bv_comp_4 () Bool (= edi_95 (_ bv134529040 32))) (define-fun edi_17482_bv_comp_6 () Bool false) (define-fun edi_17482_bv_comp_8 () Bool false) (define-fun edi_17482_bv_comp_10 () Bool false) (define-fun edi_17482_bv_comp_12 () Bool false) (define-fun edi_17482_bv_comp_13 () Bool false) (define-fun edi_17482 () (_ BitVec 32) ((_ sign_extend 24) (ite edi_225_bv_comp_87 (_ bv0 8) (ite edi_17482_bv_comp_4 (_ bv0 8) af)))) (assert (bvuge edi_17482 (_ bv9 32))) 
   (check-sat)
   (get-model)
